, ATOM=H B N O 
   1.0000000000
  15.0191547074    0.0000000000    0.0000000000
   0.0000000000   12.9109895634    0.0000000000
   0.0000000000    0.0000000000   15.2100947339
146 36 36 73 
Cartesian 
   5.0949200000    6.6689600000   13.0795000000
   4.7330400000    7.6700400000   11.8621000000
   3.9642100000    7.7517600000   15.3948000000
   3.1944900000    7.0862700000   14.1734000000
   5.8488200000    6.5747500000   10.4808000000
   7.2142000000    6.4888400000    9.6851000000
   2.8135600000    5.3522700000    7.0794500000
   2.1645800000    3.8732700000    6.7068500000
   0.5289620000    5.3949000000    6.4181300000
  14.1312000000    4.8487700000    5.7419700000
   4.6614200000    8.2680500000    5.3166700000
   4.1752900000    8.9767100000    6.6663400000
   9.2082800000    5.1478900000   14.3553000000
   7.7527200000    4.5024200000   14.1115000000
  13.9638000000    6.4749700000    9.5357900000
  14.0506000000    5.2075300000   10.4993000000
  11.9237000000    4.9005700000    9.1029700000
  11.1485000000    3.8991700000   10.1012000000
   6.6645100000    3.3757100000    8.9025100000
   5.8606200000    3.5465900000   10.3754000000
  14.7564000000    9.8247500000    5.9617600000
  14.0268000000   11.1667000000    5.5679600000
   9.9954400000    7.4590000000   10.4307000000
   9.8904500000    5.8913200000    9.9572300000
   0.8264450000    9.8080500000   14.1144000000
   0.6178980000   10.5009000000   12.7240000000
   5.0418200000    1.2214800000    5.5457000000
   6.1867600000    2.2478200000    6.0581000000
  14.0346000000    3.5245300000    8.8049500000
  12.8316000000    2.5630200000    8.2724400000
   2.5638100000   11.1957000000   13.9654000000
   3.7298800000   10.4372000000   13.0775000000
   5.7490600000   12.5283000000   13.7698000000
   6.2114100000    0.2733770000   12.3176000000
  10.8422000000    0.5999620000   13.9502000000
  12.4436000000    0.1784020000   13.8019000000
   6.9109800000   10.3207000000   12.9210000000
   7.5110800000    8.9448400000   12.2471000000
   8.8832400000    2.9714100000    6.1722400000
   9.1864300000    1.3927600000    5.8869000000
   0.7083480000    8.4800400000   11.4090000000
   1.1224200000    7.8775000000   10.0135000000
   4.3721500000   10.3128000000    8.7018100000
   2.9211800000   10.9702000000    8.6064300000
   0.5186460000    7.3075900000    7.7956300000
  14.5836000000    8.4478000000    8.3285500000
   8.7185800000    9.9206900000    7.3242700000
   8.8683800000   10.8586000000    8.6718800000
   4.8316700000    5.8236300000   14.9498000000
   6.0612400000    5.0447500000   15.6319000000
  10.8586000000   10.2149000000   10.6325000000
  12.2637000000    9.6181000000   10.1641000000
   7.5683200000   11.9009000000    9.9205400000
   7.7866700000   10.6115000000   10.7633000000
   0.1629800000    2.1576400000    5.6857700000
   0.5971620000    2.4819600000    7.2678600000
   8.8986900000    0.5125140000   13.4733000000
   8.7492100000   11.9419000000   14.2629000000
  13.8148000000    5.7051900000   12.8717000000
  14.0596000000    4.1646700000   12.5555000000
   5.1777700000   10.9607000000   14.5544000000
   6.3463300000   11.0443000000   15.6709000000
   4.7392800000    5.2181700000   11.5576000000
   3.6926400000    4.1633700000   12.0816000000
   6.7594200000    1.1986400000    9.9611100000
   5.4083800000   13.2328000000   10.3724000000
  12.6335000000    6.0837400000   14.9419000000
  12.4290000000    7.4882400000   14.0860000000
   3.7347200000    1.8233300000    7.3187400000
   4.8709900000    2.7238200000    7.8353700000
  10.6036000000   10.9900000000    7.2611700000
  11.8545000000   11.8372000000    6.5885500000
   2.5695800000    3.0997900000   13.6556000000
   1.4505800000    3.5153300000   12.6559000000
   0.3914480000   11.0973000000    8.2957800000
   1.0368600000   12.3394000000    9.2176800000
   1.7046900000    6.6069300000   12.1568000000
   2.3647400000    5.4548600000   13.2914000000
  11.5949000000    3.5204000000   14.1637000000
  10.0925000000    2.9776200000   14.6382000000
   6.3789900000   12.4259000000    6.3201000000
   5.1732100000   11.5060000000    6.7539500000
   3.5662200000    0.6984410000   13.7441000000
   3.7059900000    0.9304700000   15.3776000000
   0.4639150000    1.1454800000   11.2249000000
   0.8745510000    2.0234900000    9.8508700000
   6.3355300000    2.2772400000   13.2864000000
   6.0462900000    3.4917300000   14.3534000000
   8.6535100000    7.5076000000    5.9708800000
  10.2927000000    7.2660800000    5.9520300000
   1.3862100000    1.2161300000   14.1545000000
   0.2404290000   12.9409000000   13.7837000000
   9.4362400000   12.2934000000    7.8737200000
   8.7371800000    0.9272730000    7.7252000000
   3.0307100000    0.1126920000   10.3459000000
   3.8073600000    1.0272000000    9.1869400000
   7.0232900000   10.1302000000    6.2665900000
   6.5704200000    8.6637800000    6.9662100000
  10.4707000000    3.7192700000    5.4137200000
  10.6038000000    5.2703900000    5.0193500000
   8.4207000000    6.7781800000   13.6038000000
   8.5360200000    6.8239700000   11.8928000000
   1.7706300000    4.3006100000    8.7079000000
   2.5040100000    2.8912700000    9.1598900000
   1.5187000000    7.6205200000   14.1203000000
  15.0171000000    7.8202400000   14.7781000000
   9.9856300000    8.0568400000   13.0535000000
  11.3606000000    8.7569800000   12.4011000000
   1.7577100000   11.1338000000    5.5525400000
   2.9895900000   11.0816000000    6.5687600000
   3.0757500000   13.0328000000    5.7717800000
   2.3066200000    1.4316900000    6.3670600000
  12.6378000000   10.1400000000    8.2194600000
  13.1699000000   11.2472000000    9.2002500000
   4.1075800000    9.3250400000   10.9913000000
   2.8194200000    8.5408800000   11.6829000000
  12.6108000000    0.6290270000    9.5630900000
  14.0277000000    0.2651850000   10.0026000000
  11.8076000000    2.3479500000   11.9629000000
  10.2978000000    2.6243400000   11.6473000000
  13.5016000000    2.8815800000    6.4943000000
  12.5986000000    3.6931000000    5.5292100000
   4.9695300000    6.2892200000    8.4046200000
   4.3270500000    6.8145300000    7.1043700000
  12.5245000000   10.7716000000   14.6500000000
  13.9723000000   11.2037000000   13.9509000000
  11.5750000000    9.1711700000    6.2805900000
  12.4212000000    7.7694400000    6.0173600000
   5.5260600000    4.6181000000    7.4000400000
   7.1765200000    4.0785500000    7.3383700000
   8.7825800000    5.4848200000    6.8772500000
   9.5554300000    4.5551700000    7.9601900000
  11.9637000000    1.0713700000    6.8032700000
  12.4625000000    0.9201740000    5.1726400000
   7.8276400000    2.5655600000   12.5289000000
   7.9123600000    1.6684000000   11.2712000000
  14.5654000000    2.1284100000   13.4557000000
  13.0381000000    1.9363700000   13.4963000000
   5.9135100000    8.6210800000    9.2844100000
   6.0742500000    9.4713700000   10.7168000000
  14.3704000000    7.1022400000    5.6536700000
  13.7990000000    8.3985700000    4.7501800000
  11.1174000000    2.9886600000    8.6883900000
  10.5555000000    1.5061200000    8.2054100000
  14.3468000000   10.0876000000   10.7290000000
   0.9158600000   10.6107000000   10.4817000000
   0.7995760000   11.6753000000    2.2676500000
  14.5471000000    0.9170270000   17.3013000000
   3.2755900000   11.6990000000    2.3820400000
   2.0343700000    0.9066140000    2.3834500000
   5.7538700000   11.6543000000    2.5064600000
   4.5651900000    0.8851250000    2.4172100000
   8.2776800000   11.6380000000   17.5533000000
   7.0555400000    0.9186050000   17.6474000000
  10.7754000000   11.5989000000   17.5443000000
   9.5328500000    0.8589580000   17.2698000000
  13.3146000000   11.6359000000   17.5289000000
  12.0421000000    0.8356290000   17.4537000000
   0.7751230000    3.0827300000    2.3320500000
  14.5502000000    5.2272500000   17.6200000000
   3.2857100000    3.0728500000    2.5195200000
   2.0322500000    5.2054600000   17.7613000000
   5.7586600000    3.0618500000    2.5639000000
   4.5425400000    5.2416300000    2.7128700000
   8.2492000000    3.0791500000   17.5407000000
   7.0387400000    5.2259600000    2.5921800000
  10.7948000000    3.0069000000    2.2908200000
   9.5491300000    5.1796500000    2.6392400000
  13.3109000000    3.0248100000   17.5220000000
  12.0517000000    5.1931900000   17.5164000000
   0.8215860000    7.3832700000    2.6760800000
  14.5842000000    9.5446200000    2.5844300000
   3.2899800000    7.3571300000    2.7319500000
   2.0700100000    9.5732100000    2.6927200000
   5.7887800000    7.3930500000    2.7473900000
   4.5470800000    9.5269000000    2.7056400000
   8.2748200000    7.3750300000    2.7061900000
   7.0487700000    9.5389800000    2.6039500000
  10.8399000000    7.3092500000    2.5774500000
   9.5756600000    9.4854600000    2.5050800000
  13.3302000000    7.3583000000    2.4255900000
  12.0892000000    9.4648600000   17.5909000000
  14.5539000000   12.3822000000   17.3933000000
   0.7765260000    1.6374800000    2.1817800000
   2.0366800000   12.3804000000   17.5747000000
   3.2989900000    1.6065100000    2.4259800000
   4.5082600000   12.3671000000    2.4193700000
   5.8054100000    1.6173100000    2.5310700000
   7.0070500000   12.3650000000   17.6358000000
   8.3044300000    1.6260400000   17.4199000000
   9.5295100000   12.3416000000   17.4005000000
  10.8106000000    1.5719800000    2.1370200000
  12.0461000000   12.3002000000   17.5697000000
  13.2861000000    1.5881300000   17.4131000000
  14.5443000000    3.7766200000   17.5915000000
   0.7896420000    5.9487900000    2.5754500000
   2.0266700000    3.7787100000    2.4634900000
   3.2707600000    5.9277300000    2.7055300000
   4.5425300000    3.8000300000    2.6590500000
   5.7791500000    5.9434000000    2.6854900000
   6.9977500000    3.8110300000    2.4675800000
   8.2952900000    5.9037400000    2.7101600000
   9.5211100000    3.7365500000    2.4957500000
  10.7958000000    5.8756300000    2.5028700000
  12.0444000000    3.7439700000   17.4949000000
  13.3111000000    5.9156700000   17.5784000000
  14.5743000000    8.0950800000    2.6385700000
   0.8214330000   10.2757000000    2.5166600000
   2.0591200000    8.1243100000    2.7982500000
   3.3257800000   10.2832000000    2.5964700000
   4.5229600000    8.0938800000    2.7394500000
   5.7946400000   10.2291000000    2.6701000000
   7.0241300000    8.1159300000    2.7349700000
   8.3063900000   10.1928000000   17.6854000000
   9.5832500000    8.0731200000    2.6446900000
  10.8464000000   10.1730000000   17.6510000000
  12.0669000000    8.0194300000    2.3354500000
  13.3117000000   10.1884000000   17.6337000000
   5.2674900000    6.8690700000   12.0647000000
   4.1321000000    7.1273400000   14.6529000000
   6.2488800000    6.6908900000    9.5045800000
   1.9418800000    4.8113900000    6.9675000000
  14.6998000000    5.6612100000    5.8436000000
   4.3988700000    8.1128700000    6.2967900000
   8.2110900000    5.2734200000   14.5797000000
  13.6112000000    5.5144300000    9.6623300000
  10.9378000000    4.5827900000    9.3330200000
   6.5805300000    2.9938400000    9.9099700000
  14.8932000000   10.8455000000    5.9436000000
   9.3364900000    6.6793500000   10.2967000000
   0.8674120000   10.7625000000   13.6625000000
   5.9869900000    1.2824200000    5.9376100000
  13.8293000000    2.8192400000    8.1239800000
   3.6051300000   11.0886000000   13.8617000000
   5.6656700000    0.4272930000   13.1937000000
  11.7696000000    0.9838080000   13.6881000000
   7.0118800000    9.8787200000   11.9963000000
   9.1945500000    2.3203500000    5.4583200000
   1.3241500000    7.7454500000   11.0016000000
   3.7556900000   10.7954000000    8.0208600000
   0.2354040000    7.7844600000    8.6402400000
   9.1651200000   10.7325000000    7.6876400000
   5.2341700000    4.8617900000   15.1242000000
  11.4844000000    9.4863500000   10.8395000000
   8.2714200000   11.1756000000   10.1081000000
   0.9110020000    2.0435200000    6.3401800000
   9.3218900000   12.7604000000   14.1056000000
  14.4218000000    5.1083700000   12.2829000000
   6.1790300000   11.0235000000   14.6794000000
   4.6398000000    4.2355400000   11.6461000000
   6.4301900000    0.4126600000   10.5135000000
  13.1276000000    6.8327700000   14.4507000000
   4.0141800000    2.3606200000    8.1923700000
  11.6400000000   10.9225000000    6.9082400000
   2.2002100000    3.8354100000   13.1530000000
   1.1766100000   11.3687000000    8.9114500000
   2.1394800000    6.4907800000   13.1087000000
  10.7323000000    3.7459700000   14.5294000000
   6.1575900000   11.4686000000    6.5623800000
   3.0838500000    1.1230800000   14.5623000000
   0.8092060000    1.0520300000   10.2424000000
   6.7994600000    2.9861900000   13.8974000000
   9.3747700000    6.7661100000    5.9502100000
   0.5310260000    0.9554940000   13.6033000000
   9.5666500000    0.4362070000    7.8866200000
   3.9282000000    0.2365910000    9.8738800000
   7.3083400000    9.1407200000    6.4294900000
  11.1207000000    4.4526200000    5.4257300000
   8.3526900000    7.3894200000   12.7760000000
   1.6656100000    3.4649600000    9.3026000000
   0.8324070000    8.3012300000   14.4723000000
  10.9661000000    8.1684700000   13.1445000000
   2.7570300000   11.3519000000    5.6569100000
   3.2919700000    1.0913300000    6.1387900000
  13.2636000000   10.1974000000    8.9992300000
   3.5512700000    9.2165900000   11.8261000000
  13.2565000000   12.7322000000    9.5758200000
  11.1835000000    2.8833000000   11.3527000000
  13.4913000000    3.1467800000    5.5186100000
   4.3219400000    5.9886600000    7.6873700000
  13.0989000000   11.5426000000   14.3368000000
  11.4646000000    8.1804100000    6.1591300000
   6.1707900000    3.7923800000    7.3977300000
   8.7265000000    4.5662700000    7.4190400000
  12.3407000000    0.4271610000    6.0477000000
   8.5154000000    2.0140500000   12.0055000000
  13.7111000000    2.7190100000   13.3039000000
   5.5038900000    9.3720400000    9.8303500000
  14.1254000000    8.1773400000    5.6821300000
  11.4422000000    2.0374500000    8.3455900000
   0.2394290000   10.2289000000   11.1651000000
